Translating instance to solver...

Set parameter TimeLimit to value 28800
Gurobi Optimizer version 11.0.2 build v11.0.2rc0 (linux64 - "Ubuntu 22.04.4 LTS")

CPU model: Intel(R) Xeon(R) Gold 5120 CPU @ 2.20GHz, instruction set [SSE2|AVX|AVX2|AVX512]
Thread count: 28 physical cores, 56 logical processors, using up to 28 threads

Academic license 2463511 - for non-commercial use only - registered to lu___@cefet-rj.br
Optimize a model with 61055 rows, 30653 columns and 140553 nonzeros
Model fingerprint: 0x219fa43d
Variable types: 1 continuous, 30652 integer (30600 binary)
Coefficient statistics:
  Matrix range     [1e+00, 1e+05]
  Objective range  [3e-01, 8e-01]
  Bounds range     [1e+00, 5e+01]
  RHS range        [1e+00, 5e+01]
Presolve removed 50892 rows and 26438 columns
Presolve time: 0.85s
Presolved: 10163 rows, 4215 columns, 30673 nonzeros
Variable types: 0 continuous, 4215 integer (4164 binary)

Root relaxation: objective 1.063923e+00, 1742 iterations, 0.10 seconds (0.13 work units)

    Nodes    |    Current Node    |     Objective Bounds      |     Work
 Expl Unexpl |  Obj  Depth IntInf | Incumbent    BestBd   Gap | It/Node Time

     0     0    1.06392    0   64          -    1.06392      -     -    1s
H    0     0                       1.3676730    1.06392  22.2%     -    1s
     0     0          -    0         1.36767    1.36767  0.00%     -    1s

Cutting planes:
  Gomory: 1
  Implied bound: 4
  Clique: 2
  MIR: 6
  Zero half: 6
  RLT: 3

Explored 1 nodes (5410 simplex iterations) in 1.93 seconds (1.67 work units)
Thread count was 28 (of 56 available processors)

Solution count 1: 1.36767 

Optimal solution found (tolerance 1.00e-04)
Best objective 1.367673000000e+00, best bound 1.367672696250e+00, gap 0.0000%

Solver Wallclock Time (for this epsilon): 1.9308059215545654 s
Python wallclock Time (for this epsilon): 6.236767530441284 s


Total Elapsed Time (since program call): 192.81392455101013 s

Results:

I = 1.367673 mA
C = 40.0 points
C ~= 16.0 km^2

Minimum Epsilon for this instance = 10
Maximum Epsilon for this instance = 100

Current Epsilon = 40


Preprocessing Time (for this epsilon): 0.008472204208374023 s


Updated solution vectors:
sol_I = [-0.9176730000000001,-1.223564,-1.367673,-1.367673]
sol_C = [12.0,21.0,41.0,40.0]
sol_eps = [10,20,30,40]
sol_gap = [0.0,0.0,0.0,3.0374999981930273e-07]
